0 62 62
1 3 65
2 2 68
3 1 70
4 63 72
5 55 71
6 61 70
7 72 72
8 66 71
9 49 71
10 71 71
11 69 69
12 36 71
13 67 70
14 65 69
15 62 68
16 60 68
17 52 65
18 56 65
19 42 64
20 49 62
21 58 60
22 58 58
23 46 57
24 52 59
25 56 57
26 49 56
27 50 55
28 52 53
29 41 49
30 41 47
31 45 46
32 29 46
33 43 45
34 25 43
35 18 42
36 28 42
37 47 47
38 34 46
39 36 42
40 40 40
41 36 40
42 35 39
43 25 36
44 34 34
45 25 34
46 22 31
47 28 32
48 29 30
49 23 28
50 27 28
51 23 29
52 27 29
53 19 26
54 23 26
55 25 25
56 10 24
57 18 20
58 18 19
59 19 19
60 13 18
61 17 18
62 9 18
63 16 18
64 18 18
65 17 17
66 16 16
67 15 15
68 9 14
69 11 14
70 13 14
71 12 13
72 11 12
73 11 12
74 12 12
75 9 10
76 7 9
77 8 9
78 1 8
79 9 9
80 7 7
81 6 6
82 5 5
83 4 4
84 4 4
85 3 5
86 3 4
87 1 2
88 2 2
89 1 1
90 1 1

